
Gurobi 10.0.1 (linux64) logging started Sun Nov 26 15:41:54 2023

Set parameter LogFile to value "ArtificialInstance/ExperimentV2/S3T3K1/AdRo/gurobi91.txt"
Gurobi Optimizer version 10.0.1 build v10.0.1rc0 (linux64)

CPU model: AMD EPYC 7H12 64-Core Processor, instruction set [SSE2|AVX|AVX2]
Thread count: 128 physical cores, 128 logical processors, using up to 32 threads

Academic license 656792 - for non-commercial use only - registered to b.___@student.vu.nl
Optimize a model with 2975 rows, 2885 columns and 11335 nonzeros
Model fingerprint: 0xbcfd1ba3
Variable types: 1 continuous, 2884 integer (2884 binary)
Coefficient statistics:
  Matrix range     [1e+00, 4e+01]
  Objective range  [1e+00, 2e+01]
  Bounds range     [1e+00, 1e+00]
  RHS range        [1e+00, 1e+00]
Presolve removed 306 rows and 290 columns
Presolve time: 0.04s
Presolved: 2669 rows, 2595 columns, 10535 nonzeros
Variable types: 1 continuous, 2594 integer (2594 binary)
Found heuristic solution: objective 197.3104287

Root relaxation: objective 3.904331e+01, 1986 iterations, 0.08 seconds (0.06 work units)

    Nodes    |    Current Node    |     Objective Bounds      |     Work
 Expl Unexpl |  Obj  Depth IntInf | Incumbent    BestBd   Gap | It/Node Time

     0     0   39.04331    0  303  197.31043   39.04331  80.2%     -    0s
H    0     0                     124.3253460   39.04331  68.6%     -    0s
     0     0   40.34352    0   69  124.32535   40.34352  67.6%     -    0s
H    0     0                      43.2799281   40.34352  6.78%     -    0s
     0     0   41.25470    0  202   43.27993   41.25470  4.68%     -    0s
     0     0   41.25470    0  261   43.27993   41.25470  4.68%     -    0s
     0     0   43.27993    0  338   43.27993   43.27993  0.00%     -    0s

Cutting planes:
  Gomory: 6
  Zero half: 19

Explored 1 nodes (5338 simplex iterations) in 0.51 seconds (0.31 work units)
Thread count was 32 (of 128 available processors)

Solution count 3: 43.2799 124.325 197.31 

Optimal solution found (tolerance 1.00e-04)
Best objective 4.327992811410e+01, best bound 4.327992811410e+01, gap 0.0000%
